(set-info :smt-lib-version 2.6)
(set-logic ABV)
(set-info :source |
Generated by: Matthias Heizmann
Generated on: 2023-03-21
Generator: Ultimate Automizer
Application: Software verification
Generated by the tool Ultimate Automizer [1,2] which implements
an automata theoretic approach [3] to software verification.

This SMT script belongs to a set of SMT scripts that was generated by
applying Ultimate Automizer to benchmarks [4] from the SV-COMP 2023 [5,6].
This script may not contain all SMT commands that Ultimate Automizer
issued. In order to meet the restrictions for SMT-COMP benchmarks 
we dropped the commands for getting values (resp. models), 
unsatisfiable cores, and interpolants.

2023-03-21, Matthias Heizmann (heizmann@informatik.uni-freiburg.de)

[1] https://ultimate.informatik.uni-freiburg.de/automizer/
[2] Matthias Heizmann, Max Barth, Daniel Dietsch, Leonard Fichtner,
     Jochen Hoenicke, Dominik Klumpp, Mehdi Naouar, Tanja Schindler,
     Frank Schüssele, Andreas Podelski: Ultimate Automizer and the
     CommuHash Normal Form (Competition Contribution). TACAS 2023
[3] Matthias Heizmann, Jochen Hoenicke, Andreas Podelski: Software Model
     Checking for People Who Love Automata. CAV 2013
[4] https://github.com/sosy-lab/sv-benchmarks
[5] Dirk Beyer: Competition on Software Verification and
     Witness Validation: SV-COMP 2023.  TACAS 2023
[6] https://sv-comp.sosy-lab.org/2023/
|)
(set-info :license "https://creativecommons.org/licenses/by/4.0/")
(set-info :category "industrial")
(set-info :status unknown)
(declare-fun ~unnamed0~0~P_ALL () (_ BitVec 32))
(declare-fun ~unnamed0~0~P_PID () (_ BitVec 32))
(declare-fun ~unnamed0~0~P_PGID () (_ BitVec 32))
(declare-fun |c_#valid| () (Array (_ BitVec 64) (_ BitVec 1)))
(declare-fun |c_#memory_$Pointer$.base| () (Array (_ BitVec 64) (Array (_ BitVec 64) (_ BitVec 64))))
(declare-fun |c_#memory_$Pointer$.offset| () (Array (_ BitVec 64) (Array (_ BitVec 64) (_ BitVec 64))))
(declare-fun |c_#StackHeapBarrier| () (_ BitVec 64))
(declare-fun |c_ULTIMATE.start_main_~#s~0#1.base| () (_ BitVec 64))
(declare-fun |c_ULTIMATE.start_main_~#s~0#1.offset| () (_ BitVec 64))
(declare-fun |c_ULTIMATE.start_sll_append_#t~ret7#1.base| () (_ BitVec 64))
(declare-fun |c_ULTIMATE.start_sll_append_~head#1.base| () (_ BitVec 64))
(declare-fun |c_ULTIMATE.start_sll_append_~head#1.offset| () (_ BitVec 64))
(assert (= ~unnamed0~0~P_ALL (_ bv0 32)))
(assert (= ~unnamed0~0~P_PID (_ bv1 32)))
(assert (= (_ bv2 32) ~unnamed0~0~P_PGID))
(assert (forall ((|v_ULTIMATE.start_sll_append_#t~ret7#1.base_15| (_ BitVec 64)) (v_ArrVal_261 (Array (_ BitVec 64) (_ BitVec 64))) (v_ArrVal_268 (Array (_ BitVec 64) (_ BitVec 64))) (v_ArrVal_267 (Array (_ BitVec 64) (_ BitVec 64)))) (let ((.cse1 (store |c_#memory_$Pointer$.base| |v_ULTIMATE.start_sll_append_#t~ret7#1.base_15| v_ArrVal_267))) (let ((.cse5 (store |c_#memory_$Pointer$.offset| |v_ULTIMATE.start_sll_append_#t~ret7#1.base_15| v_ArrVal_268)) (.cse2 (select (select .cse1 |c_ULTIMATE.start_sll_append_~head#1.base|) |c_ULTIMATE.start_sll_append_~head#1.offset|))) (let ((.cse3 (select .cse1 .cse2)) (.cse4 (bvadd (_ bv4 64) (select (select .cse5 |c_ULTIMATE.start_sll_append_~head#1.base|) |c_ULTIMATE.start_sll_append_~head#1.offset|)))) (or (= |v_ULTIMATE.start_sll_append_#t~ret7#1.base_15| (_ bv0 64)) (not (= (_ bv0 1) (select |c_#valid| |v_ULTIMATE.start_sll_append_#t~ret7#1.base_15|))) (not (bvult |v_ULTIMATE.start_sll_append_#t~ret7#1.base_15| |c_#StackHeapBarrier|)) (not (= (_ bv0 64) (select (let ((.cse0 (store .cse1 .cse2 (store .cse3 .cse4 |v_ULTIMATE.start_sll_append_#t~ret7#1.base_15|)))) (select .cse0 (select (select .cse0 |c_ULTIMATE.start_main_~#s~0#1.base|) |c_ULTIMATE.start_main_~#s~0#1.offset|))) (bvadd (select (select (store .cse5 .cse2 v_ArrVal_261) |c_ULTIMATE.start_main_~#s~0#1.base|) |c_ULTIMATE.start_main_~#s~0#1.offset|) (_ bv4 64))))) (not (= (_ bv0 64) (select .cse3 .cse4)))))))))
(assert (not (let ((.cse3 (select (select |c_#memory_$Pointer$.base| |c_ULTIMATE.start_sll_append_~head#1.base|) |c_ULTIMATE.start_sll_append_~head#1.offset|))) (let ((.cse0 (select |c_#memory_$Pointer$.base| .cse3)) (.cse1 (bvadd (select (select |c_#memory_$Pointer$.offset| |c_ULTIMATE.start_sll_append_~head#1.base|) |c_ULTIMATE.start_sll_append_~head#1.offset|) (_ bv4 64)))) (or (not (= (select .cse0 .cse1) (_ bv0 64))) (forall ((v_ArrVal_261 (Array (_ BitVec 64) (_ BitVec 64)))) (not (= (_ bv0 64) (select (let ((.cse2 (store |c_#memory_$Pointer$.base| .cse3 (store .cse0 .cse1 |c_ULTIMATE.start_sll_append_#t~ret7#1.base|)))) (select .cse2 (select (select .cse2 |c_ULTIMATE.start_main_~#s~0#1.base|) |c_ULTIMATE.start_main_~#s~0#1.offset|))) (bvadd (_ bv4 64) (select (select (store |c_#memory_$Pointer$.offset| .cse3 v_ArrVal_261) |c_ULTIMATE.start_main_~#s~0#1.base|) |c_ULTIMATE.start_main_~#s~0#1.offset|)))))))))))
(check-sat)
(exit)
